18509.0
[1267, 1660, 271, 883, 423, 946, 1198, 29, 721, 852, 1451, 1615, 20, 323, 637, 1206, 242, 432, 1471, 1599, 1474, 1385, 767, 1731, 668, 1849, 490, 926, 1351, 169, 1146, 1464, 1605, 1261, 1834, 583, 694, 1984, 273, 757, 1733, 838, 1193, 1273, 1463, 1623, 157, 1899, 391, 758, 764, 1835, 292, 1486, 1657, 96, 268, 675, 307, 1472, 1617, 1877, 538, 1314, 1344, 1353, 1890, 498, 659, 1540, 1561, 1379, 1689, 1286, 1637, 1078, 546, 1968, 895, 1681, 909, 1196, 12, 842, 1205, 849, 986, 106, 1159, 265, 833, 1467, 574, 1550, 1167, 1411, 375, 562, 921, 988, 1369, 1710, 1978, 1309, 1224, 1406, 1567, 89, 1644, 1376, 475, 524, 1690, 294, 597, 1491, 211, 1189, 1676, 952, 1007, 1436, 1945, 147, 113, 302, 1001, 1648, 1695, 74, 1555, 663, 938, 1100, 1302, 46]